data;

param n:=26;
param p:=4;
param r:=[1] 0 [2] 0 [3] 4 [4] 1 [5] 11 [6] 1 [7] 8 [8] 13 [9] 4 [10] 15 [11] 0 [12] 37 [13] 4 [14] 11 [15] 48 [16] 56 [17] 10 [18] 26 [19] 1 [20] 44 [21] 40 [22] 27 [23] 86 [24] 64 [25] 1 [26] 36 ;
param w:=[1] 90 [2] 25 [3] 9 [4] 13 [5] 70 [6] 78 [7] 80 [8] 59 [9] 21 [10] 24 [11] 9 [12] 7 [13] 58 [14] 30 [15] 92 [16] 20 [17] 46 [18] 5 [19] 41 [20] 30 [21] 77 [22] 36 [23] 71 [24] 47 [25] 34 [26] 54 ;

end;
